EA0  5.080  5.080  5.080 90.000 90.000 90.000 
1.0000 
    5.079810     0.000000     0.000000
    0.000000     5.079810     0.000000
    0.000000     0.000000     5.079810
  La
   4
Direct
    0.000000     0.000000     0.000000
    0.000000     0.500000     0.500000
    0.500000     0.000000     0.500000
    0.500000     0.500000     0.000000
