SYSTEM = Si_general

ISTART = 0
IBRION = -1
NSW = 0
ISIF = 2

PREC = Normal
LREAL= Auto
ALGO = Fast

EDIFF = 1E-3
ENCUT = 300

ISMEAR = 0
SIGMA = 0.03

LWAVE = False
LCHARG = False
