S
 1.0000000000000000
     7.6023906954768394    0.0000000000000004    0.0000000000000004
     0.0000000000000016    7.6023906954768394    0.0000000000000004
     0.0000000000000000    0.0000000000000000    7.6023906954768394
   S
  16
Direct
  0.0000000000000000  0.0000000000000000  0.0000000000000000
  0.2500000000000000  0.2500000000000000  0.2500000000000000
  0.0000000000000000  0.0000000000000000  0.5000000000000000
  0.2500000000000000  0.2500000000000000  0.7500000000000001
  0.0000000000000000  0.5000000000000000  0.0000000000000000
  0.2500000000000001  0.7500000000000001  0.2500000000000000
  0.0000000000000000  0.5000000000000000  0.5000000000000000
  0.2500000000000001  0.7500000000000001  0.7500000000000001
  0.5000000000000000  0.0000000000000000  0.0000000000000000
  0.7500000000000001  0.2500000000000000  0.2500000000000000
  0.5000000000000000  0.0000000000000000  0.5000000000000000
  0.7500000000000001  0.2500000000000000  0.7500000000000001
  0.5000000000000000  0.5000000000000000  0.0000000000000000
  0.7500000000000001  0.7500000000000001  0.2500000000000000
  0.5000000000000000  0.5000000000000000  0.5000000000000000
  0.7500000000000001  0.7500000000000001  0.7500000000000000
