0  5.158  5.158  5.158 90.000 90.000 90.000 
1.0000 
    5.158240     0.000000     0.000000
    0.000000     5.158240     0.000000
    0.000000     0.000000     5.158240
   U
   4
Direct
    0.000000     0.000000     0.000000
    0.000000     0.500000     0.500000
    0.500000     0.000000     0.500000
    0.500000     0.500000     0.000000
