Y2H9 hP2 P = 120 GPa (this relaxation at 90 GPa)
1.0
   3.162333  0.000000  0.000000
   0.000000  2.7392367  0.000000
   0.000000  0.000000  4.958222
Y
2
Direct
0.33333333  0.66666667  0.25000000
0.66666667  0.33333333  0.75000000
